p cnf 240 2552
1 2 3 0
4 5 6 0
7 8 9 0
10 11 12 0
13 14 15 0
16 17 18 0
19 20 21 0
22 23 24 0
25 26 27 0
28 29 30 0
31 32 33 0
34 35 36 0
37 38 39 0
40 41 42 0
43 44 45 0
46 47 48 0
49 50 51 0
52 53 54 0
55 56 57 0
58 59 60 0
61 62 63 0
64 65 66 0
67 68 69 0
70 71 72 0
73 74 75 0
76 77 78 0
79 80 81 0
82 83 84 0
85 86 87 0
88 89 90 0
91 92 93 0
94 95 96 0
97 98 99 0
100 101 102 0
103 104 105 0
106 107 108 0
109 110 111 0
112 113 114 0
115 116 117 0
118 119 120 0
121 122 123 0
124 125 126 0
127 128 129 0
130 131 132 0
133 134 135 0
136 137 138 0
139 140 141 0
142 143 144 0
145 146 147 0
148 149 150 0
151 152 153 0
154 155 156 0
157 158 159 0
160 161 162 0
163 164 165 0
166 167 168 0
169 170 171 0
172 173 174 0
175 176 177 0
178 179 180 0
181 182 183 0
184 185 186 0
187 188 189 0
190 191 192 0
193 194 195 0
196 197 198 0
199 200 201 0
202 203 204 0
205 206 207 0
208 209 210 0
211 212 213 0
214 215 216 0
217 218 219 0
220 221 222 0
223 224 225 0
226 227 228 0
229 230 231 0
232 233 234 0
235 236 237 0
238 239 240 0
-1 -2 0
-1 -3 0
-2 -3 0
-4 -5 0
-4 -6 0
-5 -6 0
-7 -8 0
-7 -9 0
-8 -9 0
-10 -11 0
-10 -12 0
-11 -12 0
-13 -14 0
-13 -15 0
-14 -15 0
-16 -17 0
-16 -18 0
-17 -18 0
-19 -20 0
-19 -21 0
-20 -21 0
-22 -23 0
-22 -24 0
-23 -24 0
-25 -26 0
-25 -27 0
-26 -27 0
-28 -29 0
-28 -30 0
-29 -30 0
-31 -32 0
-31 -33 0
-32 -33 0
-34 -35 0
-34 -36 0
-35 -36 0
-37 -38 0
-37 -39 0
-38 -39 0
-40 -41 0
-40 -42 0
-41 -42 0
-43 -44 0
-43 -45 0
-44 -45 0
-46 -47 0
-46 -48 0
-47 -48 0
-49 -50 0
-49 -51 0
-50 -51 0
-52 -53 0
-52 -54 0
-53 -54 0
-55 -56 0
-55 -57 0
-56 -57 0
-58 -59 0
-58 -60 0
-59 -60 0
-61 -62 0
-61 -63 0
-62 -63 0
-64 -65 0
-64 -66 0
-65 -66 0
-67 -68 0
-67 -69 0
-68 -69 0
-70 -71 0
-70 -72 0
-71 -72 0
-73 -74 0
-73 -75 0
-74 -75 0
-76 -77 0
-76 -78 0
-77 -78 0
-79 -80 0
-79 -81 0
-80 -81 0
-82 -83 0
-82 -84 0
-83 -84 0
-85 -86 0
-85 -87 0
-86 -87 0
-88 -89 0
-88 -90 0
-89 -90 0
-91 -92 0
-91 -93 0
-92 -93 0
-94 -95 0
-94 -96 0
-95 -96 0
-97 -98 0
-97 -99 0
-98 -99 0
-100 -101 0
-100 -102 0
-101 -102 0
-103 -104 0
-103 -105 0
-104 -105 0
-106 -107 0
-106 -108 0
-107 -108 0
-109 -110 0
-109 -111 0
-110 -111 0
-112 -113 0
-112 -114 0
-113 -114 0
-115 -116 0
-115 -117 0
-116 -117 0
-118 -119 0
-118 -120 0
-119 -120 0
-121 -122 0
-121 -123 0
-122 -123 0
-124 -125 0
-124 -126 0
-125 -126 0
-127 -128 0
-127 -129 0
-128 -129 0
-130 -131 0
-130 -132 0
-131 -132 0
-133 -134 0
-133 -135 0
-134 -135 0
-136 -137 0
-136 -138 0
-137 -138 0
-139 -140 0
-139 -141 0
-140 -141 0
-142 -143 0
-142 -144 0
-143 -144 0
-145 -146 0
-145 -147 0
-146 -147 0
-148 -149 0
-148 -150 0
-149 -150 0
-151 -152 0
-151 -153 0
-152 -153 0
-154 -155 0
-154 -156 0
-155 -156 0
-157 -158 0
-157 -159 0
-158 -159 0
-160 -161 0
-160 -162 0
-161 -162 0
-163 -164 0
-163 -165 0
-164 -165 0
-166 -167 0
-166 -168 0
-167 -168 0
-169 -170 0
-169 -171 0
-170 -171 0
-172 -173 0
-172 -174 0
-173 -174 0
-175 -176 0
-175 -177 0
-176 -177 0
-178 -179 0
-178 -180 0
-179 -180 0
-181 -182 0
-181 -183 0
-182 -183 0
-184 -185 0
-184 -186 0
-185 -186 0
-187 -188 0
-187 -189 0
-188 -189 0
-190 -191 0
-190 -192 0
-191 -192 0
-193 -194 0
-193 -195 0
-194 -195 0
-196 -197 0
-196 -198 0
-197 -198 0
-199 -200 0
-199 -201 0
-200 -201 0
-202 -203 0
-202 -204 0
-203 -204 0
-205 -206 0
-205 -207 0
-206 -207 0
-208 -209 0
-208 -210 0
-209 -210 0
-211 -212 0
-211 -213 0
-212 -213 0
-214 -215 0
-214 -216 0
-215 -216 0
-217 -218 0
-217 -219 0
-218 -219 0
-220 -221 0
-220 -222 0
-221 -222 0
-223 -224 0
-223 -225 0
-224 -225 0
-226 -227 0
-226 -228 0
-227 -228 0
-229 -230 0
-229 -231 0
-230 -231 0
-232 -233 0
-232 -234 0
-233 -234 0
-235 -236 0
-235 -237 0
-236 -237 0
-238 -239 0
-238 -240 0
-239 -240 0
-1 -10 0
-1 -25 0
-1 -118 0
-1 -124 0
-1 -142 0
-1 -181 0
-1 -190 0
-1 -208 0
-1 -220 0
-4 -46 0
-4 -85 0
-4 -142 0
-4 -163 0
-4 -175 0
-4 -193 0
-4 -196 0
-4 -214 0
-4 -223 0
-7 -37 0
-7 -46 0
-7 -55 0
-7 -82 0
-7 -94 0
-7 -121 0
-7 -160 0
-7 -208 0
-7 -226 0
-7 -238 0
-10 -1 0
-10 -37 0
-10 -76 0
-10 -115 0
-10 -130 0
-10 -148 0
-10 -190 0
-10 -199 0
-10 -202 0
-10 -220 0
-13 -19 0
-13 -46 0
-13 -85 0
-13 -148 0
-13 -157 0
-13 -211 0
-13 -220 0
-13 -229 0
-13 -238 0
-16 -46 0
-16 -61 0
-16 -67 0
-16 -79 0
-16 -100 0
-16 -118 0
-16 -175 0
-16 -211 0
-16 -235 0
-19 -13 0
-19 -46 0
-19 -49 0
-19 -118 0
-19 -121 0
-19 -133 0
-19 -154 0
-19 -166 0
-19 -178 0
-22 -25 0
-22 -73 0
-22 -91 0
-22 -94 0
-22 -106 0
-22 -112 0
-22 -148 0
-22 -190 0
-22 -193 0
-22 -235 0
-25 -1 0
-25 -22 0
-25 -40 0
-25 -58 0
-25 -76 0
-25 -130 0
-25 -154 0
-25 -160 0
-25 -178 0
-25 -184 0
-28 -52 0
-28 -67 0
-28 -91 0
-28 -94 0
-28 -136 0
-28 -139 0
-28 -184 0
-28 -211 0
-28 -214 0
-28 -217 0
-31 -52 0
-31 -76 0
-31 -97 0
-31 -118 0
-31 -151 0
-31 -193 0
-31 -205 0
-31 -223 0
-31 -235 0
-34 -49 0
-34 -61 0
-34 -70 0
-34 -79 0
-34 -91 0
-34 -121 0
-34 -145 0
-34 -157 0
-34 -166 0
-34 -238 0
-37 -7 0
-37 -10 0
-37 -52 0
-37 -58 0
-37 -67 0
-37 -139 0
-37 -145 0
-37 -169 0
-37 -172 0
-37 -202 0
-40 -25 0
-40 -97 0
-40 -103 0
-40 -124 0
-40 -139 0
-40 -178 0
-40 -187 0
-40 -190 0
-40 -202 0
-43 -88 0
-43 -109 0
-43 -124 0
-43 -154 0
-43 -175 0
-43 -181 0
-43 -196 0
-43 -199 0
-46 -4 0
-46 -7 0
-46 -13 0
-46 -16 0
-46 -19 0
-46 -115 0
-46 -223 0
-46 -232 0
-49 -19 0
-49 -34 0
-49 -103 0
-49 -112 0
-49 -166 0
-49 -169 0
-49 -172 0
-49 -190 0
-49 -199 0
-49 -235 0
-52 -28 0
-52 -31 0
-52 -37 0
-52 -94 0
-52 -103 0
-52 -136 0
-52 -145 0
-52 -154 0
-52 -217 0
-55 -7 0
-55 -76 0
-55 -91 0
-55 -115 0
-55 -151 0
-55 -154 0
-55 -169 0
-55 -175 0
-55 -187 0
-55 -196 0
-58 -25 0
-58 -37 0
-58 -91 0
-58 -133 0
-58 -157 0
-58 -181 0
-58 -205 0
-58 -223 0
-58 -226 0
-58 -229 0
-61 -16 0
-61 -34 0
-61 -70 0
-61 -106 0
-61 -178 0
-61 -190 0
-61 -196 0
-61 -223 0
-61 -229 0
-61 -232 0
-64 -97 0
-64 -124 0
-64 -127 0
-64 -133 0
-64 -145 0
-64 -163 0
-64 -172 0
-64 -178 0
-64 -187 0
-67 -16 0
-67 -28 0
-67 -37 0
-67 -73 0
-67 -82 0
-67 -100 0
-67 -115 0
-67 -166 0
-67 -199 0
-70 -34 0
-70 -61 0
-70 -85 0
-70 -100 0
-70 -115 0
-70 -136 0
-70 -172 0
-70 -214 0
-70 -226 0
-73 -22 0
-73 -67 0
-73 -109 0
-73 -112 0
-73 -118 0
-73 -157 0
-73 -160 0
-73 -181 0
-73 -232 0
-76 -10 0
-76 -25 0
-76 -31 0
-76 -55 0
-76 -160 0
-76 -184 0
-76 -199 0
-76 -208 0
-76 -211 0
-76 -238 0
-79 -16 0
-79 -34 0
-79 -97 0
-79 -124 0
-79 -130 0
-79 -154 0
-79 -196 0
-79 -214 0
-79 -232 0
-79 -235 0
-82 -7 0
-82 -67 0
-82 -91 0
-82 -103 0
-82 -106 0
-82 -115 0
-82 -124 0
-82 -136 0
-82 -160 0
-82 -217 0
-85 -4 0
-85 -13 0
-85 -70 0
-85 -124 0
-85 -133 0
-85 -196 0
-85 -205 0
-85 -220 0
-88 -43 0
-88 -97 0
-88 -103 0
-88 -109 0
-88 -115 0
-88 -157 0
-88 -163 0
-88 -205 0
-88 -235 0
-88 -238 0
-91 -22 0
-91 -28 0
-91 -34 0
-91 -55 0
-91 -58 0
-91 -82 0
-91 -127 0
-91 -136 0
-91 -160 0
-91 -211 0
-94 -7 0
-94 -22 0
-94 -28 0
-94 -52 0
-94 -145 0
-94 -166 0
-94 -208 0
-94 -229 0
-94 -232 0
-97 -31 0
-97 -40 0
-97 -64 0
-97 -79 0
-97 -88 0
-97 -109 0
-97 -115 0
-97 -142 0
-97 -157 0
-100 -16 0
-100 -67 0
-100 -70 0
-100 -103 0
-100 -112 0
-100 -127 0
-100 -172 0
-100 -181 0
-100 -235 0
-103 -40 0
-103 -49 0
-103 -52 0
-103 -82 0
-103 -88 0
-103 -100 0
-103 -148 0
-103 -172 0
-103 -190 0
-103 -202 0
-106 -22 0
-106 -61 0
-106 -82 0
-106 -112 0
-106 -121 0
-106 -130 0
-106 -151 0
-106 -160 0
-106 -184 0
-106 -235 0
-109 -43 0
-109 -73 0
-109 -88 0
-109 -97 0
-109 -124 0
-109 -130 0
-109 -154 0
-109 -184 0
-109 -205 0
-112 -22 0
-112 -49 0
-112 -73 0
-112 -100 0
-112 -106 0
-112 -133 0
-112 -175 0
-112 -184 0
-112 -208 0
-115 -10 0
-115 -46 0
-115 -55 0
-115 -67 0
-115 -70 0
-115 -82 0
-115 -88 0
-115 -97 0
-118 -1 0
-118 -16 0
-118 -19 0
-118 -31 0
-118 -73 0
-118 -133 0
-118 -148 0
-118 -175 0
-118 -193 0
-118 -196 0
-121 -7 0
-121 -19 0
-121 -34 0
-121 -106 0
-121 -130 0
-121 -166 0
-121 -208 0
-121 -232 0
-121 -235 0
-124 -1 0
-124 -40 0
-124 -43 0
-124 -64 0
-124 -79 0
-124 -82 0
-124 -85 0
-124 -109 0
-124 -127 0
-124 -172 0
-127 -64 0
-127 -91 0
-127 -100 0
-127 -124 0
-127 -172 0
-127 -175 0
-127 -178 0
-127 -199 0
-127 -202 0
-130 -10 0
-130 -25 0
-130 -79 0
-130 -106 0
-130 -109 0
-130 -121 0
-130 -133 0
-130 -145 0
-130 -151 0
-130 -169 0
-133 -19 0
-133 -58 0
-133 -64 0
-133 -85 0
-133 -112 0
-133 -118 0
-133 -130 0
-133 -157 0
-133 -160 0
-133 -223 0
-136 -28 0
-136 -52 0
-136 -70 0
-136 -82 0
-136 -91 0
-136 -142 0
-136 -178 0
-136 -196 0
-136 -214 0
-139 -28 0
-139 -37 0
-139 -40 0
-139 -148 0
-139 -157 0
-139 -172 0
-139 -196 0
-139 -205 0
-139 -232 0
-142 -1 0
-142 -4 0
-142 -97 0
-142 -136 0
-142 -148 0
-142 -166 0
-142 -181 0
-142 -187 0
-142 -229 0
-145 -34 0
-145 -37 0
-145 -52 0
-145 -64 0
-145 -94 0
-145 -130 0
-145 -157 0
-145 -166 0
-145 -190 0
-148 -10 0
-148 -13 0
-148 -22 0
-148 -103 0
-148 -118 0
-148 -139 0
-148 -142 0
-148 -181 0
-148 -190 0
-151 -31 0
-151 -55 0
-151 -106 0
-151 -130 0
-151 -166 0
-151 -172 0
-151 -193 0
-151 -205 0
-151 -217 0
-154 -19 0
-154 -25 0
-154 -43 0
-154 -52 0
-154 -55 0
-154 -79 0
-154 -109 0
-154 -166 0
-154 -169 0
-154 -229 0
-157 -13 0
-157 -34 0
-157 -58 0
-157 -73 0
-157 -88 0
-157 -97 0
-157 -133 0
-157 -139 0
-157 -145 0
-157 -160 0
-160 -7 0
-160 -25 0
-160 -73 0
-160 -76 0
-160 -82 0
-160 -91 0
-160 -106 0
-160 -133 0
-160 -157 0
-160 -238 0
-163 -4 0
-163 -64 0
-163 -88 0
-163 -187 0
-163 -202 0
-163 -208 0
-163 -220 0
-163 -223 0
-163 -226 0
-163 -229 0
-166 -19 0
-166 -34 0
-166 -49 0
-166 -67 0
-166 -94 0
-166 -121 0
-166 -142 0
-166 -145 0
-166 -151 0
-166 -154 0
-169 -37 0
-169 -49 0
-169 -55 0
-169 -130 0
-169 -154 0
-169 -217 0
-169 -220 0
-169 -223 0
-169 -238 0
-172 -37 0
-172 -49 0
-172 -64 0
-172 -70 0
-172 -100 0
-172 -103 0
-172 -124 0
-172 -127 0
-172 -139 0
-172 -151 0
-175 -4 0
-175 -16 0
-175 -43 0
-175 -55 0
-175 -112 0
-175 -118 0
-175 -127 0
-175 -208 0
-175 -217 0
-178 -19 0
-178 -25 0
-178 -40 0
-178 -61 0
-178 -64 0
-178 -127 0
-178 -136 0
-178 -187 0
-181 -1 0
-181 -43 0
-181 -58 0
-181 -73 0
-181 -100 0
-181 -142 0
-181 -148 0
-181 -208 0
-184 -25 0
-184 -28 0
-184 -76 0
-184 -106 0
-184 -109 0
-184 -112 0
-184 -196 0
-184 -214 0
-184 -223 0
-184 -232 0
-187 -40 0
-187 -55 0
-187 -64 0
-187 -142 0
-187 -163 0
-187 -178 0
-187 -199 0
-187 -202 0
-187 -226 0
-187 -232 0
-190 -1 0
-190 -10 0
-190 -22 0
-190 -40 0
-190 -49 0
-190 -61 0
-190 -103 0
-190 -145 0
-190 -148 0
-193 -4 0
-193 -22 0
-193 -31 0
-193 -118 0
-193 -151 0
-193 -202 0
-193 -217 0
-193 -238 0
-196 -4 0
-196 -43 0
-196 -55 0
-196 -61 0
-196 -79 0
-196 -85 0
-196 -118 0
-196 -136 0
-196 -139 0
-196 -184 0
-199 -10 0
-199 -43 0
-199 -49 0
-199 -67 0
-199 -76 0
-199 -127 0
-199 -187 0
-199 -202 0
-199 -205 0
-199 -223 0
-202 -10 0
-202 -37 0
-202 -40 0
-202 -103 0
-202 -127 0
-202 -163 0
-202 -187 0
-202 -193 0
-202 -199 0
-205 -31 0
-205 -58 0
-205 -85 0
-205 -88 0
-205 -109 0
-205 -139 0
-205 -151 0
-205 -199 0
-208 -1 0
-208 -7 0
-208 -76 0
-208 -94 0
-208 -112 0
-208 -121 0
-208 -163 0
-208 -175 0
-208 -181 0
-211 -13 0
-211 -16 0
-211 -28 0
-211 -76 0
-211 -91 0
-211 -214 0
-211 -217 0
-211 -229 0
-214 -4 0
-214 -28 0
-214 -70 0
-214 -79 0
-214 -136 0
-214 -184 0
-214 -211 0
-214 -238 0
-217 -28 0
-217 -52 0
-217 -82 0
-217 -151 0
-217 -169 0
-217 -175 0
-217 -193 0
-217 -211 0
-217 -220 0
-217 -226 0
-220 -1 0
-220 -10 0
-220 -13 0
-220 -85 0
-220 -163 0
-220 -169 0
-220 -217 0
-220 -226 0
-220 -232 0
-223 -4 0
-223 -31 0
-223 -46 0
-223 -58 0
-223 -61 0
-223 -133 0
-223 -163 0
-223 -169 0
-223 -184 0
-223 -199 0
-226 -7 0
-226 -58 0
-226 -70 0
-226 -163 0
-226 -187 0
-226 -217 0
-226 -220 0
-226 -229 0
-229 -13 0
-229 -58 0
-229 -61 0
-229 -94 0
-229 -142 0
-229 -154 0
-229 -163 0
-229 -211 0
-229 -226 0
-232 -46 0
-232 -61 0
-232 -73 0
-232 -79 0
-232 -94 0
-232 -121 0
-232 -139 0
-232 -184 0
-232 -187 0
-232 -220 0
-235 -16 0
-235 -22 0
-235 -31 0
-235 -49 0
-235 -79 0
-235 -88 0
-235 -100 0
-235 -106 0
-235 -121 0
-238 -7 0
-238 -13 0
-238 -34 0
-238 -76 0
-238 -88 0
-238 -160 0
-238 -169 0
-238 -193 0
-238 -214 0
-2 -11 0
-2 -26 0
-2 -119 0
-2 -125 0
-2 -143 0
-2 -182 0
-2 -191 0
-2 -209 0
-2 -221 0
-5 -47 0
-5 -86 0
-5 -143 0
-5 -164 0
-5 -176 0
-5 -194 0
-5 -197 0
-5 -215 0
-5 -224 0
-8 -38 0
-8 -47 0
-8 -56 0
-8 -83 0
-8 -95 0
-8 -122 0
-8 -161 0
-8 -209 0
-8 -227 0
-8 -239 0
-11 -2 0
-11 -38 0
-11 -77 0
-11 -116 0
-11 -131 0
-11 -149 0
-11 -191 0
-11 -200 0
-11 -203 0
-11 -221 0
-14 -20 0
-14 -47 0
-14 -86 0
-14 -149 0
-14 -158 0
-14 -212 0
-14 -221 0
-14 -230 0
-14 -239 0
-17 -47 0
-17 -62 0
-17 -68 0
-17 -80 0
-17 -101 0
-17 -119 0
-17 -176 0
-17 -212 0
-17 -236 0
-20 -14 0
-20 -47 0
-20 -50 0
-20 -119 0
-20 -122 0
-20 -134 0
-20 -155 0
-20 -167 0
-20 -179 0
-23 -26 0
-23 -74 0
-23 -92 0
-23 -95 0
-23 -107 0
-23 -113 0
-23 -149 0
-23 -191 0
-23 -194 0
-23 -236 0
-26 -2 0
-26 -23 0
-26 -41 0
-26 -59 0
-26 -77 0
-26 -131 0
-26 -155 0
-26 -161 0
-26 -179 0
-26 -185 0
-29 -53 0
-29 -68 0
-29 -92 0
-29 -95 0
-29 -137 0
-29 -140 0
-29 -185 0
-29 -212 0
-29 -215 0
-29 -218 0
-32 -53 0
-32 -77 0
-32 -98 0
-32 -119 0
-32 -152 0
-32 -194 0
-32 -206 0
-32 -224 0
-32 -236 0
-35 -50 0
-35 -62 0
-35 -71 0
-35 -80 0
-35 -92 0
-35 -122 0
-35 -146 0
-35 -158 0
-35 -167 0
-35 -239 0
-38 -8 0
-38 -11 0
-38 -53 0
-38 -59 0
-38 -68 0
-38 -140 0
-38 -146 0
-38 -170 0
-38 -173 0
-38 -203 0
-41 -26 0
-41 -98 0
-41 -104 0
-41 -125 0
-41 -140 0
-41 -179 0
-41 -188 0
-41 -191 0
-41 -203 0
-44 -89 0
-44 -110 0
-44 -125 0
-44 -155 0
-44 -176 0
-44 -182 0
-44 -197 0
-44 -200 0
-47 -5 0
-47 -8 0
-47 -14 0
-47 -17 0
-47 -20 0
-47 -116 0
-47 -224 0
-47 -233 0
-50 -20 0
-50 -35 0
-50 -104 0
-50 -113 0
-50 -167 0
-50 -170 0
-50 -173 0
-50 -191 0
-50 -200 0
-50 -236 0
-53 -29 0
-53 -32 0
-53 -38 0
-53 -95 0
-53 -104 0
-53 -137 0
-53 -146 0
-53 -155 0
-53 -218 0
-56 -8 0
-56 -77 0
-56 -92 0
-56 -116 0
-56 -152 0
-56 -155 0
-56 -170 0
-56 -176 0
-56 -188 0
-56 -197 0
-59 -26 0
-59 -38 0
-59 -92 0
-59 -134 0
-59 -158 0
-59 -182 0
-59 -206 0
-59 -224 0
-59 -227 0
-59 -230 0
-62 -17 0
-62 -35 0
-62 -71 0
-62 -107 0
-62 -179 0
-62 -191 0
-62 -197 0
-62 -224 0
-62 -230 0
-62 -233 0
-65 -98 0
-65 -125 0
-65 -128 0
-65 -134 0
-65 -146 0
-65 -164 0
-65 -173 0
-65 -179 0
-65 -188 0
-68 -17 0
-68 -29 0
-68 -38 0
-68 -74 0
-68 -83 0
-68 -101 0
-68 -116 0
-68 -167 0
-68 -200 0
-71 -35 0
-71 -62 0
-71 -86 0
-71 -101 0
-71 -116 0
-71 -137 0
-71 -173 0
-71 -215 0
-71 -227 0
-74 -23 0
-74 -68 0
-74 -110 0
-74 -113 0
-74 -119 0
-74 -158 0
-74 -161 0
-74 -182 0
-74 -233 0
-77 -11 0
-77 -26 0
-77 -32 0
-77 -56 0
-77 -161 0
-77 -185 0
-77 -200 0
-77 -209 0
-77 -212 0
-77 -239 0
-80 -17 0
-80 -35 0
-80 -98 0
-80 -125 0
-80 -131 0
-80 -155 0
-80 -197 0
-80 -215 0
-80 -233 0
-80 -236 0
-83 -8 0
-83 -68 0
-83 -92 0
-83 -104 0
-83 -107 0
-83 -116 0
-83 -125 0
-83 -137 0
-83 -161 0
-83 -218 0
-86 -5 0
-86 -14 0
-86 -71 0
-86 -125 0
-86 -134 0
-86 -197 0
-86 -206 0
-86 -221 0
-89 -44 0
-89 -98 0
-89 -104 0
-89 -110 0
-89 -116 0
-89 -158 0
-89 -164 0
-89 -206 0
-89 -236 0
-89 -239 0
-92 -23 0
-92 -29 0
-92 -35 0
-92 -56 0
-92 -59 0
-92 -83 0
-92 -128 0
-92 -137 0
-92 -161 0
-92 -212 0
-95 -8 0
-95 -23 0
-95 -29 0
-95 -53 0
-95 -146 0
-95 -167 0
-95 -209 0
-95 -230 0
-95 -233 0
-98 -32 0
-98 -41 0
-98 -65 0
-98 -80 0
-98 -89 0
-98 -110 0
-98 -116 0
-98 -143 0
-98 -158 0
-101 -17 0
-101 -68 0
-101 -71 0
-101 -104 0
-101 -113 0
-101 -128 0
-101 -173 0
-101 -182 0
-101 -236 0
-104 -41 0
-104 -50 0
-104 -53 0
-104 -83 0
-104 -89 0
-104 -101 0
-104 -149 0
-104 -173 0
-104 -191 0
-104 -203 0
-107 -23 0
-107 -62 0
-107 -83 0
-107 -113 0
-107 -122 0
-107 -131 0
-107 -152 0
-107 -161 0
-107 -185 0
-107 -236 0
-110 -44 0
-110 -74 0
-110 -89 0
-110 -98 0
-110 -125 0
-110 -131 0
-110 -155 0
-110 -185 0
-110 -206 0
-113 -23 0
-113 -50 0
-113 -74 0
-113 -101 0
-113 -107 0
-113 -134 0
-113 -176 0
-113 -185 0
-113 -209 0
-116 -11 0
-116 -47 0
-116 -56 0
-116 -68 0
-116 -71 0
-116 -83 0
-116 -89 0
-116 -98 0
-119 -2 0
-119 -17 0
-119 -20 0
-119 -32 0
-119 -74 0
-119 -134 0
-119 -149 0
-119 -176 0
-119 -194 0
-119 -197 0
-122 -8 0
-122 -20 0
-122 -35 0
-122 -107 0
-122 -131 0
-122 -167 0
-122 -209 0
-122 -233 0
-122 -236 0
-125 -2 0
-125 -41 0
-125 -44 0
-125 -65 0
-125 -80 0
-125 -83 0
-125 -86 0
-125 -110 0
-125 -128 0
-125 -173 0
-128 -65 0
-128 -92 0
-128 -101 0
-128 -125 0
-128 -173 0
-128 -176 0
-128 -179 0
-128 -200 0
-128 -203 0
-131 -11 0
-131 -26 0
-131 -80 0
-131 -107 0
-131 -110 0
-131 -122 0
-131 -134 0
-131 -146 0
-131 -152 0
-131 -170 0
-134 -20 0
-134 -59 0
-134 -65 0
-134 -86 0
-134 -113 0
-134 -119 0
-134 -131 0
-134 -158 0
-134 -161 0
-134 -224 0
-137 -29 0
-137 -53 0
-137 -71 0
-137 -83 0
-137 -92 0
-137 -143 0
-137 -179 0
-137 -197 0
-137 -215 0
-140 -29 0
-140 -38 0
-140 -41 0
-140 -149 0
-140 -158 0
-140 -173 0
-140 -197 0
-140 -206 0
-140 -233 0
-143 -2 0
-143 -5 0
-143 -98 0
-143 -137 0
-143 -149 0
-143 -167 0
-143 -182 0
-143 -188 0
-143 -230 0
-146 -35 0
-146 -38 0
-146 -53 0
-146 -65 0
-146 -95 0
-146 -131 0
-146 -158 0
-146 -167 0
-146 -191 0
-149 -11 0
-149 -14 0
-149 -23 0
-149 -104 0
-149 -119 0
-149 -140 0
-149 -143 0
-149 -182 0
-149 -191 0
-152 -32 0
-152 -56 0
-152 -107 0
-152 -131 0
-152 -167 0
-152 -173 0
-152 -194 0
-152 -206 0
-152 -218 0
-155 -20 0
-155 -26 0
-155 -44 0
-155 -53 0
-155 -56 0
-155 -80 0
-155 -110 0
-155 -167 0
-155 -170 0
-155 -230 0
-158 -14 0
-158 -35 0
-158 -59 0
-158 -74 0
-158 -89 0
-158 -98 0
-158 -134 0
-158 -140 0
-158 -146 0
-158 -161 0
-161 -8 0
-161 -26 0
-161 -74 0
-161 -77 0
-161 -83 0
-161 -92 0
-161 -107 0
-161 -134 0
-161 -158 0
-161 -239 0
-164 -5 0
-164 -65 0
-164 -89 0
-164 -188 0
-164 -203 0
-164 -209 0
-164 -221 0
-164 -224 0
-164 -227 0
-164 -230 0
-167 -20 0
-167 -35 0
-167 -50 0
-167 -68 0
-167 -95 0
-167 -122 0
-167 -143 0
-167 -146 0
-167 -152 0
-167 -155 0
-170 -38 0
-170 -50 0
-170 -56 0
-170 -131 0
-170 -155 0
-170 -218 0
-170 -221 0
-170 -224 0
-170 -239 0
-173 -38 0
-173 -50 0
-173 -65 0
-173 -71 0
-173 -101 0
-173 -104 0
-173 -125 0
-173 -128 0
-173 -140 0
-173 -152 0
-176 -5 0
-176 -17 0
-176 -44 0
-176 -56 0
-176 -113 0
-176 -119 0
-176 -128 0
-176 -209 0
-176 -218 0
-179 -20 0
-179 -26 0
-179 -41 0
-179 -62 0
-179 -65 0
-179 -128 0
-179 -137 0
-179 -188 0
-182 -2 0
-182 -44 0
-182 -59 0
-182 -74 0
-182 -101 0
-182 -143 0
-182 -149 0
-182 -209 0
-185 -26 0
-185 -29 0
-185 -77 0
-185 -107 0
-185 -110 0
-185 -113 0
-185 -197 0
-185 -215 0
-185 -224 0
-185 -233 0
-188 -41 0
-188 -56 0
-188 -65 0
-188 -143 0
-188 -164 0
-188 -179 0
-188 -200 0
-188 -203 0
-188 -227 0
-188 -233 0
-191 -2 0
-191 -11 0
-191 -23 0
-191 -41 0
-191 -50 0
-191 -62 0
-191 -104 0
-191 -146 0
-191 -149 0
-194 -5 0
-194 -23 0
-194 -32 0
-194 -119 0
-194 -152 0
-194 -203 0
-194 -218 0
-194 -239 0
-197 -5 0
-197 -44 0
-197 -56 0
-197 -62 0
-197 -80 0
-197 -86 0
-197 -119 0
-197 -137 0
-197 -140 0
-197 -185 0
-200 -11 0
-200 -44 0
-200 -50 0
-200 -68 0
-200 -77 0
-200 -128 0
-200 -188 0
-200 -203 0
-200 -206 0
-200 -224 0
-203 -11 0
-203 -38 0
-203 -41 0
-203 -104 0
-203 -128 0
-203 -164 0
-203 -188 0
-203 -194 0
-203 -200 0
-206 -32 0
-206 -59 0
-206 -86 0
-206 -89 0
-206 -110 0
-206 -140 0
-206 -152 0
-206 -200 0
-209 -2 0
-209 -8 0
-209 -77 0
-209 -95 0
-209 -113 0
-209 -122 0
-209 -164 0
-209 -176 0
-209 -182 0
-212 -14 0
-212 -17 0
-212 -29 0
-212 -77 0
-212 -92 0
-212 -215 0
-212 -218 0
-212 -230 0
-215 -5 0
-215 -29 0
-215 -71 0
-215 -80 0
-215 -137 0
-215 -185 0
-215 -212 0
-215 -239 0
-218 -29 0
-218 -53 0
-218 -83 0
-218 -152 0
-218 -170 0
-218 -176 0
-218 -194 0
-218 -212 0
-218 -221 0
-218 -227 0
-221 -2 0
-221 -11 0
-221 -14 0
-221 -86 0
-221 -164 0
-221 -170 0
-221 -218 0
-221 -227 0
-221 -233 0
-224 -5 0
-224 -32 0
-224 -47 0
-224 -59 0
-224 -62 0
-224 -134 0
-224 -164 0
-224 -170 0
-224 -185 0
-224 -200 0
-227 -8 0
-227 -59 0
-227 -71 0
-227 -164 0
-227 -188 0
-227 -218 0
-227 -221 0
-227 -230 0
-230 -14 0
-230 -59 0
-230 -62 0
-230 -95 0
-230 -143 0
-230 -155 0
-230 -164 0
-230 -212 0
-230 -227 0
-233 -47 0
-233 -62 0
-233 -74 0
-233 -80 0
-233 -95 0
-233 -122 0
-233 -140 0
-233 -185 0
-233 -188 0
-233 -221 0
-236 -17 0
-236 -23 0
-236 -32 0
-236 -50 0
-236 -80 0
-236 -89 0
-236 -101 0
-236 -107 0
-236 -122 0
-239 -8 0
-239 -14 0
-239 -35 0
-239 -77 0
-239 -89 0
-239 -161 0
-239 -170 0
-239 -194 0
-239 -215 0
-3 -12 0
-3 -27 0
-3 -120 0
-3 -126 0
-3 -144 0
-3 -183 0
-3 -192 0
-3 -210 0
-3 -222 0
-6 -48 0
-6 -87 0
-6 -144 0
-6 -165 0
-6 -177 0
-6 -195 0
-6 -198 0
-6 -216 0
-6 -225 0
-9 -39 0
-9 -48 0
-9 -57 0
-9 -84 0
-9 -96 0
-9 -123 0
-9 -162 0
-9 -210 0
-9 -228 0
-9 -240 0
-12 -3 0
-12 -39 0
-12 -78 0
-12 -117 0
-12 -132 0
-12 -150 0
-12 -192 0
-12 -201 0
-12 -204 0
-12 -222 0
-15 -21 0
-15 -48 0
-15 -87 0
-15 -150 0
-15 -159 0
-15 -213 0
-15 -222 0
-15 -231 0
-15 -240 0
-18 -48 0
-18 -63 0
-18 -69 0
-18 -81 0
-18 -102 0
-18 -120 0
-18 -177 0
-18 -213 0
-18 -237 0
-21 -15 0
-21 -48 0
-21 -51 0
-21 -120 0
-21 -123 0
-21 -135 0
-21 -156 0
-21 -168 0
-21 -180 0
-24 -27 0
-24 -75 0
-24 -93 0
-24 -96 0
-24 -108 0
-24 -114 0
-24 -150 0
-24 -192 0
-24 -195 0
-24 -237 0
-27 -3 0
-27 -24 0
-27 -42 0
-27 -60 0
-27 -78 0
-27 -132 0
-27 -156 0
-27 -162 0
-27 -180 0
-27 -186 0
-30 -54 0
-30 -69 0
-30 -93 0
-30 -96 0
-30 -138 0
-30 -141 0
-30 -186 0
-30 -213 0
-30 -216 0
-30 -219 0
-33 -54 0
-33 -78 0
-33 -99 0
-33 -120 0
-33 -153 0
-33 -195 0
-33 -207 0
-33 -225 0
-33 -237 0
-36 -51 0
-36 -63 0
-36 -72 0
-36 -81 0
-36 -93 0
-36 -123 0
-36 -147 0
-36 -159 0
-36 -168 0
-36 -240 0
-39 -9 0
-39 -12 0
-39 -54 0
-39 -60 0
-39 -69 0
-39 -141 0
-39 -147 0
-39 -171 0
-39 -174 0
-39 -204 0
-42 -27 0
-42 -99 0
-42 -105 0
-42 -126 0
-42 -141 0
-42 -180 0
-42 -189 0
-42 -192 0
-42 -204 0
-45 -90 0
-45 -111 0
-45 -126 0
-45 -156 0
-45 -177 0
-45 -183 0
-45 -198 0
-45 -201 0
-48 -6 0
-48 -9 0
-48 -15 0
-48 -18 0
-48 -21 0
-48 -117 0
-48 -225 0
-48 -234 0
-51 -21 0
-51 -36 0
-51 -105 0
-51 -114 0
-51 -168 0
-51 -171 0
-51 -174 0
-51 -192 0
-51 -201 0
-51 -237 0
-54 -30 0
-54 -33 0
-54 -39 0
-54 -96 0
-54 -105 0
-54 -138 0
-54 -147 0
-54 -156 0
-54 -219 0
-57 -9 0
-57 -78 0
-57 -93 0
-57 -117 0
-57 -153 0
-57 -156 0
-57 -171 0
-57 -177 0
-57 -189 0
-57 -198 0
-60 -27 0
-60 -39 0
-60 -93 0
-60 -135 0
-60 -159 0
-60 -183 0
-60 -207 0
-60 -225 0
-60 -228 0
-60 -231 0
-63 -18 0
-63 -36 0
-63 -72 0
-63 -108 0
-63 -180 0
-63 -192 0
-63 -198 0
-63 -225 0
-63 -231 0
-63 -234 0
-66 -99 0
-66 -126 0
-66 -129 0
-66 -135 0
-66 -147 0
-66 -165 0
-66 -174 0
-66 -180 0
-66 -189 0
-69 -18 0
-69 -30 0
-69 -39 0
-69 -75 0
-69 -84 0
-69 -102 0
-69 -117 0
-69 -168 0
-69 -201 0
-72 -36 0
-72 -63 0
-72 -87 0
-72 -102 0
-72 -117 0
-72 -138 0
-72 -174 0
-72 -216 0
-72 -228 0
-75 -24 0
-75 -69 0
-75 -111 0
-75 -114 0
-75 -120 0
-75 -159 0
-75 -162 0
-75 -183 0
-75 -234 0
-78 -12 0
-78 -27 0
-78 -33 0
-78 -57 0
-78 -162 0
-78 -186 0
-78 -201 0
-78 -210 0
-78 -213 0
-78 -240 0
-81 -18 0
-81 -36 0
-81 -99 0
-81 -126 0
-81 -132 0
-81 -156 0
-81 -198 0
-81 -216 0
-81 -234 0
-81 -237 0
-84 -9 0
-84 -69 0
-84 -93 0
-84 -105 0
-84 -108 0
-84 -117 0
-84 -126 0
-84 -138 0
-84 -162 0
-84 -219 0
-87 -6 0
-87 -15 0
-87 -72 0
-87 -126 0
-87 -135 0
-87 -198 0
-87 -207 0
-87 -222 0
-90 -45 0
-90 -99 0
-90 -105 0
-90 -111 0
-90 -117 0
-90 -159 0
-90 -165 0
-90 -207 0
-90 -237 0
-90 -240 0
-93 -24 0
-93 -30 0
-93 -36 0
-93 -57 0
-93 -60 0
-93 -84 0
-93 -129 0
-93 -138 0
-93 -162 0
-93 -213 0
-96 -9 0
-96 -24 0
-96 -30 0
-96 -54 0
-96 -147 0
-96 -168 0
-96 -210 0
-96 -231 0
-96 -234 0
-99 -33 0
-99 -42 0
-99 -66 0
-99 -81 0
-99 -90 0
-99 -111 0
-99 -117 0
-99 -144 0
-99 -159 0
-102 -18 0
-102 -69 0
-102 -72 0
-102 -105 0
-102 -114 0
-102 -129 0
-102 -174 0
-102 -183 0
-102 -237 0
-105 -42 0
-105 -51 0
-105 -54 0
-105 -84 0
-105 -90 0
-105 -102 0
-105 -150 0
-105 -174 0
-105 -192 0
-105 -204 0
-108 -24 0
-108 -63 0
-108 -84 0
-108 -114 0
-108 -123 0
-108 -132 0
-108 -153 0
-108 -162 0
-108 -186 0
-108 -237 0
-111 -45 0
-111 -75 0
-111 -90 0
-111 -99 0
-111 -126 0
-111 -132 0
-111 -156 0
-111 -186 0
-111 -207 0
-114 -24 0
-114 -51 0
-114 -75 0
-114 -102 0
-114 -108 0
-114 -135 0
-114 -177 0
-114 -186 0
-114 -210 0
-117 -12 0
-117 -48 0
-117 -57 0
-117 -69 0
-117 -72 0
-117 -84 0
-117 -90 0
-117 -99 0
-120 -3 0
-120 -18 0
-120 -21 0
-120 -33 0
-120 -75 0
-120 -135 0
-120 -150 0
-120 -177 0
-120 -195 0
-120 -198 0
-123 -9 0
-123 -21 0
-123 -36 0
-123 -108 0
-123 -132 0
-123 -168 0
-123 -210 0
-123 -234 0
-123 -237 0
-126 -3 0
-126 -42 0
-126 -45 0
-126 -66 0
-126 -81 0
-126 -84 0
-126 -87 0
-126 -111 0
-126 -129 0
-126 -174 0
-129 -66 0
-129 -93 0
-129 -102 0
-129 -126 0
-129 -174 0
-129 -177 0
-129 -180 0
-129 -201 0
-129 -204 0
-132 -12 0
-132 -27 0
-132 -81 0
-132 -108 0
-132 -111 0
-132 -123 0
-132 -135 0
-132 -147 0
-132 -153 0
-132 -171 0
-135 -21 0
-135 -60 0
-135 -66 0
-135 -87 0
-135 -114 0
-135 -120 0
-135 -132 0
-135 -159 0
-135 -162 0
-135 -225 0
-138 -30 0
-138 -54 0
-138 -72 0
-138 -84 0
-138 -93 0
-138 -144 0
-138 -180 0
-138 -198 0
-138 -216 0
-141 -30 0
-141 -39 0
-141 -42 0
-141 -150 0
-141 -159 0
-141 -174 0
-141 -198 0
-141 -207 0
-141 -234 0
-144 -3 0
-144 -6 0
-144 -99 0
-144 -138 0
-144 -150 0
-144 -168 0
-144 -183 0
-144 -189 0
-144 -231 0
-147 -36 0
-147 -39 0
-147 -54 0
-147 -66 0
-147 -96 0
-147 -132 0
-147 -159 0
-147 -168 0
-147 -192 0
-150 -12 0
-150 -15 0
-150 -24 0
-150 -105 0
-150 -120 0
-150 -141 0
-150 -144 0
-150 -183 0
-150 -192 0
-153 -33 0
-153 -57 0
-153 -108 0
-153 -132 0
-153 -168 0
-153 -174 0
-153 -195 0
-153 -207 0
-153 -219 0
-156 -21 0
-156 -27 0
-156 -45 0
-156 -54 0
-156 -57 0
-156 -81 0
-156 -111 0
-156 -168 0
-156 -171 0
-156 -231 0
-159 -15 0
-159 -36 0
-159 -60 0
-159 -75 0
-159 -90 0
-159 -99 0
-159 -135 0
-159 -141 0
-159 -147 0
-159 -162 0
-162 -9 0
-162 -27 0
-162 -75 0
-162 -78 0
-162 -84 0
-162 -93 0
-162 -108 0
-162 -135 0
-162 -159 0
-162 -240 0
-165 -6 0
-165 -66 0
-165 -90 0
-165 -189 0
-165 -204 0
-165 -210 0
-165 -222 0
-165 -225 0
-165 -228 0
-165 -231 0
-168 -21 0
-168 -36 0
-168 -51 0
-168 -69 0
-168 -96 0
-168 -123 0
-168 -144 0
-168 -147 0
-168 -153 0
-168 -156 0
-171 -39 0
-171 -51 0
-171 -57 0
-171 -132 0
-171 -156 0
-171 -219 0
-171 -222 0
-171 -225 0
-171 -240 0
-174 -39 0
-174 -51 0
-174 -66 0
-174 -72 0
-174 -102 0
-174 -105 0
-174 -126 0
-174 -129 0
-174 -141 0
-174 -153 0
-177 -6 0
-177 -18 0
-177 -45 0
-177 -57 0
-177 -114 0
-177 -120 0
-177 -129 0
-177 -210 0
-177 -219 0
-180 -21 0
-180 -27 0
-180 -42 0
-180 -63 0
-180 -66 0
-180 -129 0
-180 -138 0
-180 -189 0
-183 -3 0
-183 -45 0
-183 -60 0
-183 -75 0
-183 -102 0
-183 -144 0
-183 -150 0
-183 -210 0
-186 -27 0
-186 -30 0
-186 -78 0
-186 -108 0
-186 -111 0
-186 -114 0
-186 -198 0
-186 -216 0
-186 -225 0
-186 -234 0
-189 -42 0
-189 -57 0
-189 -66 0
-189 -144 0
-189 -165 0
-189 -180 0
-189 -201 0
-189 -204 0
-189 -228 0
-189 -234 0
-192 -3 0
-192 -12 0
-192 -24 0
-192 -42 0
-192 -51 0
-192 -63 0
-192 -105 0
-192 -147 0
-192 -150 0
-195 -6 0
-195 -24 0
-195 -33 0
-195 -120 0
-195 -153 0
-195 -204 0
-195 -219 0
-195 -240 0
-198 -6 0
-198 -45 0
-198 -57 0
-198 -63 0
-198 -81 0
-198 -87 0
-198 -120 0
-198 -138 0
-198 -141 0
-198 -186 0
-201 -12 0
-201 -45 0
-201 -51 0
-201 -69 0
-201 -78 0
-201 -129 0
-201 -189 0
-201 -204 0
-201 -207 0
-201 -225 0
-204 -12 0
-204 -39 0
-204 -42 0
-204 -105 0
-204 -129 0
-204 -165 0
-204 -189 0
-204 -195 0
-204 -201 0
-207 -33 0
-207 -60 0
-207 -87 0
-207 -90 0
-207 -111 0
-207 -141 0
-207 -153 0
-207 -201 0
-210 -3 0
-210 -9 0
-210 -78 0
-210 -96 0
-210 -114 0
-210 -123 0
-210 -165 0
-210 -177 0
-210 -183 0
-213 -15 0
-213 -18 0
-213 -30 0
-213 -78 0
-213 -93 0
-213 -216 0
-213 -219 0
-213 -231 0
-216 -6 0
-216 -30 0
-216 -72 0
-216 -81 0
-216 -138 0
-216 -186 0
-216 -213 0
-216 -240 0
-219 -30 0
-219 -54 0
-219 -84 0
-219 -153 0
-219 -171 0
-219 -177 0
-219 -195 0
-219 -213 0
-219 -222 0
-219 -228 0
-222 -3 0
-222 -12 0
-222 -15 0
-222 -87 0
-222 -165 0
-222 -171 0
-222 -219 0
-222 -228 0
-222 -234 0
-225 -6 0
-225 -33 0
-225 -48 0
-225 -60 0
-225 -63 0
-225 -135 0
-225 -165 0
-225 -171 0
-225 -186 0
-225 -201 0
-228 -9 0
-228 -60 0
-228 -72 0
-228 -165 0
-228 -189 0
-228 -219 0
-228 -222 0
-228 -231 0
-231 -15 0
-231 -60 0
-231 -63 0
-231 -96 0
-231 -144 0
-231 -156 0
-231 -165 0
-231 -213 0
-231 -228 0
-234 -48 0
-234 -63 0
-234 -75 0
-234 -81 0
-234 -96 0
-234 -123 0
-234 -141 0
-234 -186 0
-234 -189 0
-234 -222 0
-237 -18 0
-237 -24 0
-237 -33 0
-237 -51 0
-237 -81 0
-237 -90 0
-237 -102 0
-237 -108 0
-237 -123 0
-240 -9 0
-240 -15 0
-240 -36 0
-240 -78 0
-240 -90 0
-240 -162 0
-240 -171 0
-240 -195 0
-240 -216 0
